2025-10-18 23:49:37,707 - INFO - 📌 第一个 epoch：默认所有模块使用 checkpoint
2025-10-18 23:49:38,884 - INFO - Epoch 1 completed in 1.181378 seconds
2025-10-18 23:49:39,347 - INFO - torch.cuda.max_memory_reserved() : 7.45703125
2025-10-18 23:49:39,944 - INFO - 
[🔁 拟合反向传播时间模型]
2025-10-18 23:49:39,945 - INFO - 总反向传播时间: 0.592212s
2025-10-18 23:49:39,945 - INFO - 拟合模型: backward_total ≈ 2 × (A + B) + b
2025-10-18 23:49:39,945 - INFO - A = 0.969852, B = 0.019081, b = -0.396722s
2025-10-18 23:49:39,968 - INFO - Set parameter LicenseID to value 2706656
2025-10-18 23:49:39,973 - INFO - Set parameter LogToConsole to value 1
2025-10-18 23:49:39,974 - INFO - Set parameter LogFile to value ""
2025-10-18 23:49:39,974 - INFO - Set parameter Threads to value 12
2025-10-18 23:49:39,974 - INFO - Set parameter TimeLimit to value 3600
2025-10-18 23:49:39,974 - INFO - Set parameter OptimalityTol to value 0.0001
2025-10-18 23:49:39,974 - INFO - Set parameter IntFeasTol to value 1e-05
2025-10-18 23:49:39,974 - INFO - Set parameter StartNodeLimit to value 10000000
2025-10-18 23:49:40,026 - INFO - Set parameter TimeLimit to value 3600
2025-10-18 23:49:40,026 - INFO - 
2025-10-18 23:49:40,026 - INFO - 
2025-10-18 23:49:40,026 - INFO - Restarting solve
2025-10-18 23:49:40,026 - INFO - 
2025-10-18 23:49:40,026 - INFO - 
2025-10-18 23:49:40,028 - INFO - Gurobi Optimizer version 12.0.3 build v12.0.3rc0 (linux64 - "Ubuntu 20.04.6 LTS")
2025-10-18 23:49:40,028 - INFO - 
2025-10-18 23:49:40,028 - INFO - CPU model: Intel(R) Xeon(R) Platinum 8260 CPU @ 2.40GHz, instruction set [SSE2|AVX|AVX2|AVX512]
2025-10-18 23:49:40,028 - INFO - Thread count: 48 physical cores, 96 logical processors, using up to 12 threads
2025-10-18 23:49:40,028 - INFO - 
2025-10-18 23:49:40,028 - INFO - Non-default parameters:
2025-10-18 23:49:40,028 - INFO - TimeLimit  3600
2025-10-18 23:49:40,028 - INFO - OptimalityTol  0.0001
2025-10-18 23:49:40,028 - INFO - StartNodeLimit  10000000
2025-10-18 23:49:40,028 - INFO - Threads  12
2025-10-18 23:49:40,028 - INFO - 
2025-10-18 23:49:40,028 - INFO - Optimize a model with 5603 rows, 3584 columns and 15200 nonzeros
2025-10-18 23:49:40,029 - INFO - Model fingerprint: 0x855b11d3
2025-10-18 23:49:40,029 - INFO - Variable types: 1024 continuous, 2560 integer (2560 binary)
2025-10-18 23:49:40,029 - INFO - Coefficient statistics:
2025-10-18 23:49:40,029 - INFO -   Matrix range     [1e+00, 2e+15]
2025-10-18 23:49:40,029 - INFO -   Objective range  [5e+04, 2e+06]
2025-10-18 23:49:40,029 - INFO -   Bounds range     [1e+00, 2e+16]
2025-10-18 23:49:40,029 - INFO -   RHS range        [1e+00, 2e+16]
2025-10-18 23:49:40,029 - INFO - Warning: Model contains large matrix coefficient range
2025-10-18 23:49:40,029 - INFO - Warning: Model contains large rhs
2025-10-18 23:49:40,029 - INFO - Warning: Model contains large bounds
2025-10-18 23:49:40,029 - INFO -          Consider reformulating model or setting NumericFocus parameter
2025-10-18 23:49:40,029 - INFO -          to avoid numerical issues.
2025-10-18 23:49:40,042 - INFO - Presolve removed 4283 rows and 1964 columns
2025-10-18 23:49:40,042 - INFO - Presolve time: 0.01s
2025-10-18 23:49:40,042 - INFO - Presolved: 1320 rows, 1620 columns, 4514 nonzeros
2025-10-18 23:49:40,044 - INFO - Variable types: 0 continuous, 1620 integer (1095 binary)
2025-10-18 23:49:40,053 - INFO - 
2025-10-18 23:49:40,053 - INFO - Root relaxation: objective 2.632525e+07, 417 iterations, 0.00 seconds (0.00 work units)
2025-10-18 23:49:40,064 - INFO - 
2025-10-18 23:49:40,064 - INFO -     Nodes    |    Current Node    |     Objective Bounds      |     Work
2025-10-18 23:49:40,064 - INFO -  Expl Unexpl |  Obj  Depth IntInf | Incumbent    BestBd   Gap | It/Node Time
2025-10-18 23:49:40,064 - INFO - 
2025-10-18 23:49:40,064 - INFO -      0     0 2.6325e+07    0   17          - 2.6325e+07      -     -    0s
2025-10-18 23:49:40,091 - INFO - H    0     0                    3.942226e+07 2.6325e+07  33.2%     -    0s
2025-10-18 23:49:40,092 - INFO -      0     0 2.6338e+07    0   15 3.9422e+07 2.6338e+07  33.2%     -    0s
2025-10-18 23:49:40,110 - INFO - *    0     0               0    2.633780e+07 2.6338e+07  0.00%     -    0s
2025-10-18 23:49:40,110 - INFO - 
2025-10-18 23:49:40,110 - INFO - Cutting planes:
2025-10-18 23:49:40,110 - INFO -   Cover: 2
2025-10-18 23:49:40,110 - INFO -   GUB cover: 1
2025-10-18 23:49:40,110 - INFO - 
2025-10-18 23:49:40,110 - INFO - Explored 1 nodes (764 simplex iterations) in 0.08 seconds (0.05 work units)
2025-10-18 23:49:40,110 - INFO - Thread count was 12 (of 96 available processors)
2025-10-18 23:49:40,110 - INFO - 
2025-10-18 23:49:40,110 - INFO - Solution count 2: 2.63378e+07 3.94223e+07 
2025-10-18 23:49:40,110 - INFO - 
2025-10-18 23:49:40,110 - INFO - Optimal solution found (tolerance 1.00e-04)
2025-10-18 23:49:40,110 - INFO - Best objective 2.633779500000e+07, best bound 2.633779500000e+07, gap 0.0000%
2025-10-18 23:49:40,120 - INFO - 规划前的显存GB：16.0
2025-10-18 23:49:40,120 - INFO - 规划后的显存GB：15.110519886016846
2025-10-18 23:49:40,120 - INFO - ✅ 最优策略：[1, 1, 1, 1, 1, 1, 1, 1, 1, 1, 1, 1, 1, 0, 1, 1]
2025-10-18 23:49:40,120 - INFO - 📌 checkpoint 的欧氏长度:, []
2025-10-18 23:49:40,120 - INFO - 📌 checkpoint 的余弦长度:, [717]
2025-10-18 23:49:40,121 - INFO - 💾 最终显存峰值：%.2f MB % 14191.99333190918
2025-10-18 23:49:40,121 - INFO - Epoch 2 completed in 0.772783 seconds
2025-10-18 23:49:40,121 - INFO - torch.cuda.max_memory_reserved() : 7.45703125
2025-10-18 23:49:40,534 - INFO - Epoch 3 completed in 0.412910 seconds
2025-10-18 23:49:40,534 - INFO - 
====================== [第1个 Epoch 收集统计数据] ======================
2025-10-18 23:49:40,535 - INFO - 
🔍 EUCLIDEAN modules:
2025-10-18 23:49:40,535 - INFO - [Shapelet 119] forward_avg=0.017683s over 2 calls | peak=574.44MB | final=0.00MB
2025-10-18 23:49:40,535 - INFO - [Shapelet 238] forward_avg=0.010413s over 2 calls | peak=1015.43MB | final=0.00MB
2025-10-18 23:49:40,535 - INFO - [Shapelet 358] forward_avg=0.016398s over 2 calls | peak=1333.82MB | final=0.00MB
2025-10-18 23:49:40,535 - INFO - [Shapelet 478] forward_avg=0.019848s over 2 calls | peak=1527.39MB | final=0.00MB
2025-10-18 23:49:40,535 - INFO - [Shapelet 597] forward_avg=0.019529s over 2 calls | peak=1593.80MB | final=0.00MB
2025-10-18 23:49:40,535 - INFO - [Shapelet 717] forward_avg=0.016970s over 2 calls | peak=1532.89MB | final=0.00MB
2025-10-18 23:49:40,535 - INFO - [Shapelet 837] forward_avg=0.014110s over 2 calls | peak=1346.26MB | final=0.00MB
2025-10-18 23:49:40,535 - INFO - [Shapelet 957] forward_avg=0.011686s over 2 calls | peak=1033.37MB | final=0.00MB
2025-10-18 23:49:40,535 - INFO - 
🔍 COSINE modules:
2025-10-18 23:49:40,535 - INFO - [Shapelet 119] forward_avg=0.001969s over 2 calls | peak=377.76MB | final=0.00MB
2025-10-18 23:49:40,535 - INFO - [Shapelet 238] forward_avg=0.003039s over 2 calls | peak=670.78MB | final=0.00MB
2025-10-18 23:49:40,535 - INFO - [Shapelet 358] forward_avg=0.003916s over 2 calls | peak=882.25MB | final=0.00MB
2025-10-18 23:49:40,535 - INFO - [Shapelet 478] forward_avg=0.006902s over 2 calls | peak=1010.33MB | final=0.00MB
2025-10-18 23:49:40,535 - INFO - [Shapelet 597] forward_avg=0.007896s over 2 calls | peak=1052.88MB | final=0.00MB
2025-10-18 23:49:40,535 - INFO - [Shapelet 717] forward_avg=0.004341s over 2 calls | peak=1012.70MB | final=0.00MB
2025-10-18 23:49:40,535 - INFO - [Shapelet 837] forward_avg=0.003893s over 2 calls | peak=885.75MB | final=0.00MB
2025-10-18 23:49:40,535 - INFO - [Shapelet 957] forward_avg=0.003047s over 2 calls | peak=676.20MB | final=0.00MB
2025-10-18 23:49:40,535 - INFO - 
🔍 CROSS modules:
2025-10-18 23:49:40,535 - INFO - [Shapelet 119] forward_avg=0.000563s over 2 calls
2025-10-18 23:49:40,536 - INFO - [Shapelet 238] forward_avg=0.000484s over 2 calls
2025-10-18 23:49:40,536 - INFO - [Shapelet 358] forward_avg=0.000598s over 2 calls
2025-10-18 23:49:40,536 - INFO - [Shapelet 478] forward_avg=0.000751s over 2 calls
2025-10-18 23:49:40,536 - INFO - [Shapelet 597] forward_avg=0.000629s over 2 calls
2025-10-18 23:49:40,536 - INFO - [Shapelet 717] forward_avg=0.000563s over 2 calls
2025-10-18 23:49:40,536 - INFO - [Shapelet 837] forward_avg=0.000626s over 2 calls
2025-10-18 23:49:40,536 - INFO - [Shapelet 957] forward_avg=0.000555s over 2 calls
2025-10-18 23:49:40,536 - INFO - 
💾 模型第一次反向传播阶段的显存峰值（所有模块中的最大值）: 8856.45 MB
2025-10-18 23:49:40,536 - INFO - 
💾 模型初始显存: 9.69 MB
2025-10-18 23:49:40,536 - INFO - =======================================================================

2025-10-18 23:49:40,536 - INFO - torch.cuda.max_memory_reserved() : 13.302734375
2025-10-18 23:49:40,969 - INFO - Epoch 4 completed in 0.432019 seconds
2025-10-18 23:49:40,970 - INFO - torch.cuda.max_memory_reserved() : 14.12890625
2025-10-18 23:49:41,409 - INFO - Epoch 5 completed in 0.437768 seconds
2025-10-18 23:49:41,409 - INFO - torch.cuda.max_memory_reserved() : 14.12890625
2025-10-18 23:49:41,807 - INFO - Epoch 6 completed in 0.396160 seconds
2025-10-18 23:49:41,807 - INFO - torch.cuda.max_memory_reserved() : 14.12890625
2025-10-18 23:49:42,194 - INFO - Epoch 7 completed in 0.385192 seconds
2025-10-18 23:49:42,195 - INFO - torch.cuda.max_memory_reserved() : 14.12890625
2025-10-18 23:49:42,616 - INFO - Epoch 8 completed in 0.419910 seconds
2025-10-18 23:49:42,617 - INFO - torch.cuda.max_memory_reserved() : 14.12890625
2025-10-18 23:49:43,057 - INFO - Epoch 9 completed in 0.438789 seconds
2025-10-18 23:49:43,058 - INFO - torch.cuda.max_memory_reserved() : 14.12890625
2025-10-18 23:49:43,476 - INFO - Epoch 10 completed in 0.416829 seconds
2025-10-18 23:49:43,909 - INFO - torch.cuda.max_memory_reserved() : 14.12890625
2025-10-18 23:49:43,910 - INFO - !!!采用策略后的几个epoch 平均时间:0.417447030544281
2025-10-18 23:49:43,910 - INFO - 



